8047.0
0 1 0 1 1 0 1 1 0 0 0 1 1 0 1 1 1 0 1 0 1 0 0 1 0 1 1 0 0 1 
1 1 6 1 6 1 1 1 3 4 3 4 4 6 6 6 7 7 7 7 7 7 11 11 11 11 11 12 12 14 12 14 15 14 15 15 16 16 16 16 16 16 20 20 18 20 18 20 23 18 23 18 1 23 23 23 23 25 26 26 25 26 25 26 29 29 29 29 29 29 